\ENCODING=ISO-8859-1
\Problem name: IloCplex

Minimize
 obj1: 80 x1 + 90 x2 + 90 x3 - 70 x4 + 80 x5 + 90 x6 + 90 x7 - 70 x8 + 80 x9
       + 90 x10 + 90 x11 - 70 x12 + 80 x13 + 90 x14 + 90 x15 - 70 x16 + 80 x17
       + 90 x18 + 90 x19 - 70 x20 + 80 x21 + 90 x22 + 90 x23 - 70 x24 + 80 x25
       + 90 x26 + 110 x27 - 90 x28 + 80 x29 + 90 x30 + 110 x31 - 90 x32
       + 80 x33 + 90 x34 + 110 x35 - 90 x36 + 80 x37 + 90 x38 + 110 x39
       - 90 x40 + 80 x41 + 90 x42 + 110 x43 - 90 x44 + 80 x45 + 90 x46
       + 125 x47 - 105 x48 + 80 x49 + 90 x50 + 125 x51 - 105 x52 + 80 x53
       + 90 x54 + 125 x55 - 105 x56 + 80 x57 + 90 x58 + 125 x59 - 105 x60
       + 80 x61 + 90 x62 + 125 x63 - 105 x64 + 80 x65 + 90 x66 + 125 x67
       - 105 x68 + 80 x69 + 90 x70 + 125 x71 - 105 x72 + 80 x73 + 90 x74
       + 110 x75 - 90 x76 + 80 x77 + 90 x78 + 110 x79 - 90 x80 + 80 x81
       + 90 x82 + 110 x83 - 90 x84 + 80 x85 + 90 x86 + 110 x87 - 90 x88
       + 80 x89 + 90 x90 + 110 x91 - 90 x92 + 80 x93 + 90 x94 + 110 x95
       - 90 x96 + 24
Subject To
 c1:   x1 >= 0
 c2:   x1 <= 80
 c3:   x2 >= 0
 c4:   x2 <= 90
 c5:   x97 >= 0
 c6:   x97 <= 1
 c7:   x97 - 0.00474999994039536 x98 + 0.00526315796078077 x99
        = 0.200000002980232
 c8:   x98 >= 0
 c9:   x99 >= 0
 c10:  x98 <= 168.421051025391
 c11:  x99 <= 38
 c12:  x1 + x2 + x3 - x4 - x98 + x99  = 169
 c13:  x5 >= 0
 c14:  x5 <= 80
 c15:  x6 >= 0
 c16:  x6 <= 90
 c17:  x100 >= 0
 c18:  x100 <= 1
 c19:  - x97 + x100 - 0.00474999994039536 x101 + 0.00526315796078077 x102  = 0
 c20:  x101 >= 0
 c21:  x102 >= 0
 c22:  210.526318431231 x97 + x101 <= 210.526318431231
 c23:  - 189.999997615814 x97 + x102 <= 0
 c24:  x5 + x6 + x7 - x8 - x101 + x102  = 175
 c25:  x9 >= 0
 c26:  x9 <= 80
 c27:  x10 >= 0
 c28:  x10 <= 90
 c29:  x103 >= 0
 c30:  x103 <= 1
 c31:  - x100 + x103 - 0.00474999994039536 x104 + 0.00526315796078077 x105  = 0
 c32:  x104 >= 0
 c33:  x105 >= 0
 c34:  210.526318431231 x100 + x104 <= 210.526318431231
 c35:  - 189.999997615814 x100 + x105 <= 0
 c36:  x9 + x10 + x11 - x12 - x104 + x105  = 179
 c37:  x13 >= 0
 c38:  x13 <= 80
 c39:  x14 >= 0
 c40:  x14 <= 90
 c41:  x106 >= 0
 c42:  x106 <= 1
 c43:  - x103 + x106 - 0.00474999994039536 x107 + 0.00526315796078077 x108  = 0
 c44:  x107 >= 0
 c45:  x108 >= 0
 c46:  210.526318431231 x103 + x107 <= 210.526318431231
 c47:  - 189.999997615814 x103 + x108 <= 0
 c48:  x13 + x14 + x15 - x16 - x107 + x108  = 171
 c49:  x17 >= 0
 c50:  x17 <= 80
 c51:  x18 >= 0
 c52:  x18 <= 90
 c53:  x109 >= 0
 c54:  x109 <= 1
 c55:  - x106 + x109 - 0.00474999994039536 x110 + 0.00526315796078077 x111  = 0
 c56:  x110 >= 0
 c57:  x111 >= 0
 c58:  210.526318431231 x106 + x110 <= 210.526318431231
 c59:  - 189.999997615814 x106 + x111 <= 0
 c60:  x17 + x18 + x19 - x20 - x110 + x111  = 181
 c61:  x21 >= 0
 c62:  x21 <= 80
 c63:  x22 >= 0
 c64:  x22 <= 90
 c65:  x112 >= 0
 c66:  x112 <= 1
 c67:  - x109 + x112 - 0.00474999994039536 x113 + 0.00526315796078077 x114  = 0
 c68:  x113 >= 0
 c69:  x114 >= 0
 c70:  210.526318431231 x109 + x113 <= 210.526318431231
 c71:  - 189.999997615814 x109 + x114 <= 0
 c72:  x21 + x22 + x23 - x24 - x113 + x114  = 172
 c73:  x25 >= 0
 c74:  x25 <= 80
 c75:  x26 >= 0
 c76:  x26 <= 90
 c77:  x115 >= 0
 c78:  x115 <= 1
 c79:  - x112 + x115 - 0.00474999994039536 x116 + 0.00526315796078077 x117  = 0
 c80:  x116 >= 0
 c81:  x117 >= 0
 c82:  210.526318431231 x112 + x116 <= 210.526318431231
 c83:  - 189.999997615814 x112 + x117 <= 0
 c84:  x25 + x26 + x27 - x28 - x116 + x117  = 270
 c85:  x29 >= 0
 c86:  x29 <= 80
 c87:  x30 >= 0
 c88:  x30 <= 90
 c89:  x118 >= 0
 c90:  x118 <= 1
 c91:  - x115 + x118 - 0.00474999994039536 x119 + 0.00526315796078077 x120  = 0
 c92:  x119 >= 0
 c93:  x120 >= 0
 c94:  210.526318431231 x115 + x119 <= 210.526318431231
 c95:  - 189.999997615814 x115 + x120 <= 0
 c96:  x29 + x30 + x31 - x32 - x119 + x120  = 244
 c97:  x33 >= 0
 c98:  x33 <= 80
 c99:  x34 >= 0
 c100: x34 <= 90
 c101: x121 >= 0
 c102: x121 <= 1
 c103: - x118 + x121 - 0.00474999994039536 x122 + 0.00526315796078077 x123  = 0
 c104: x122 >= 0
 c105: x123 >= 0
 c106: 210.526318431231 x118 + x122 <= 210.526318431231
 c107: - 189.999997615814 x118 + x123 <= 0
 c108: x33 + x34 + x35 - x36 - x122 + x123  = 243
 c109: x37 >= 0
 c110: x37 <= 80
 c111: x38 >= 0
 c112: x38 <= 90
 c113: x124 >= 0
 c114: x124 <= 1
 c115: - x121 + x124 - 0.00474999994039536 x125 + 0.00526315796078077 x126  = 0
 c116: x125 >= 0
 c117: x126 >= 0
 c118: 210.526318431231 x121 + x125 <= 210.526318431231
 c119: - 189.999997615814 x121 + x126 <= 0
 c120: x37 + x38 + x39 - x40 - x125 + x126  = 241
 c121: x41 >= 0
 c122: x41 <= 80
 c123: x42 >= 0
 c124: x42 <= 90
 c125: x127 >= 0
 c126: x127 <= 1
 c127: - x124 + x127 - 0.00474999994039536 x128 + 0.00526315796078077 x129  = 0
 c128: x128 >= 0
 c129: x129 >= 0
 c130: 210.526318431231 x124 + x128 <= 210.526318431231
 c131: - 189.999997615814 x124 + x129 <= 0
 c132: x41 + x42 + x43 - x44 - x128 + x129  = 147
 c133: x45 >= 0
 c134: x45 <= 80
 c135: x46 >= 0
 c136: x46 <= 90
 c137: x130 >= 0
 c138: x130 <= 1
 c139: - x127 + x130 - 0.00474999994039536 x131 + 0.00526315796078077 x132  = 0
 c140: x131 >= 0
 c141: x132 >= 0
 c142: 210.526318431231 x127 + x131 <= 210.526318431231
 c143: - 189.999997615814 x127 + x132 <= 0
 c144: x45 + x46 + x47 - x48 - x131 + x132  = 102
 c145: x49 >= 0
 c146: x49 <= 80
 c147: x50 >= 0
 c148: x50 <= 90
 c149: x133 >= 0
 c150: x133 <= 1
 c151: - x130 + x133 - 0.00474999994039536 x134 + 0.00526315796078077 x135  = 0
 c152: x134 >= 0
 c153: x135 >= 0
 c154: 210.526318431231 x130 + x134 <= 210.526318431231
 c155: - 189.999997615814 x130 + x135 <= 0
 c156: x49 + x50 + x51 - x52 - x134 + x135  = 95
 c157: x53 >= 0
 c158: x53 <= 80
 c159: x54 >= 0
 c160: x54 <= 90
 c161: x136 >= 0
 c162: x136 <= 1
 c163: - x133 + x136 - 0.00474999994039536 x137 + 0.00526315796078077 x138  = 0
 c164: x137 >= 0
 c165: x138 >= 0
 c166: 210.526318431231 x133 + x137 <= 210.526318431231
 c167: - 189.999997615814 x133 + x138 <= 0
 c168: x53 + x54 + x55 - x56 - x137 + x138  = 92
 c169: x57 >= 0
 c170: x57 <= 80
 c171: x58 >= 0
 c172: x58 <= 90
 c173: x139 >= 0
 c174: x139 <= 1
 c175: - x136 + x139 - 0.00474999994039536 x140 + 0.00526315796078077 x141  = 0
 c176: x140 >= 0
 c177: x141 >= 0
 c178: 210.526318431231 x136 + x140 <= 210.526318431231
 c179: - 189.999997615814 x136 + x141 <= 0
 c180: x57 + x58 + x59 - x60 - x140 + x141  = 182
 c181: x61 >= 0
 c182: x61 <= 80
 c183: x62 >= 0
 c184: x62 <= 90
 c185: x142 >= 0
 c186: x142 <= 1
 c187: - x139 + x142 - 0.00474999994039536 x143 + 0.00526315796078077 x144  = 0
 c188: x143 >= 0
 c189: x144 >= 0
 c190: 210.526318431231 x139 + x143 <= 210.526318431231
 c191: - 189.999997615814 x139 + x144 <= 0
 c192: x61 + x62 + x63 - x64 - x143 + x144  = 198
 c193: x65 >= 0
 c194: x65 <= 80
 c195: x66 >= 0
 c196: x66 <= 90
 c197: x145 >= 0
 c198: x145 <= 1
 c199: - x142 + x145 - 0.00474999994039536 x146 + 0.00526315796078077 x147  = 0
 c200: x146 >= 0
 c201: x147 >= 0
 c202: 210.526318431231 x142 + x146 <= 210.526318431231
 c203: - 189.999997615814 x142 + x147 <= 0
 c204: x65 + x66 + x67 - x68 - x146 + x147  = 211
 c205: x69 >= 0
 c206: x69 <= 80
 c207: x70 >= 0
 c208: x70 <= 90
 c209: x148 >= 0
 c210: x148 <= 1
 c211: - x145 + x148 - 0.00474999994039536 x149 + 0.00526315796078077 x150  = 0
 c212: x149 >= 0
 c213: x150 >= 0
 c214: 210.526318431231 x145 + x149 <= 210.526318431231
 c215: - 189.999997615814 x145 + x150 <= 0
 c216: x69 + x70 + x71 - x72 - x149 + x150  = 251
 c217: x73 >= 0
 c218: x73 <= 80
 c219: x74 >= 0
 c220: x74 <= 90
 c221: x151 >= 0
 c222: x151 <= 1
 c223: - x148 + x151 - 0.00474999994039536 x152 + 0.00526315796078077 x153  = 0
 c224: x152 >= 0
 c225: x153 >= 0
 c226: 210.526318431231 x148 + x152 <= 210.526318431231
 c227: - 189.999997615814 x148 + x153 <= 0
 c228: x73 + x74 + x75 - x76 - x152 + x153  = 284
 c229: x77 >= 0
 c230: x77 <= 80
 c231: x78 >= 0
 c232: x78 <= 90
 c233: x154 >= 0
 c234: x154 <= 1
 c235: - x151 + x154 - 0.00474999994039536 x155 + 0.00526315796078077 x156  = 0
 c236: x155 >= 0
 c237: x156 >= 0
 c238: 210.526318431231 x151 + x155 <= 210.526318431231
 c239: - 189.999997615814 x151 + x156 <= 0
 c240: x77 + x78 + x79 - x80 - x155 + x156  = 167
 c241: x81 >= 0
 c242: x81 <= 80
 c243: x82 >= 0
 c244: x82 <= 90
 c245: x157 >= 0
 c246: x157 <= 1
 c247: - x154 + x157 - 0.00474999994039536 x158 + 0.00526315796078077 x159  = 0
 c248: x158 >= 0
 c249: x159 >= 0
 c250: 210.526318431231 x154 + x158 <= 210.526318431231
 c251: - 189.999997615814 x154 + x159 <= 0
 c252: x81 + x82 + x83 - x84 - x158 + x159  = 128
 c253: x85 >= 0
 c254: x85 <= 80
 c255: x86 >= 0
 c256: x86 <= 90
 c257: x160 >= 0
 c258: x160 <= 1
 c259: - x157 + x160 - 0.00474999994039536 x161 + 0.00526315796078077 x162  = 0
 c260: x161 >= 0
 c261: x162 >= 0
 c262: 210.526318431231 x157 + x161 <= 210.526318431231
 c263: - 189.999997615814 x157 + x162 <= 0
 c264: x85 + x86 + x87 - x88 - x161 + x162  = 134
 c265: x89 >= 0
 c266: x89 <= 80
 c267: x90 >= 0
 c268: x90 <= 90
 c269: x163 >= 0
 c270: x163 <= 1
 c271: - x160 + x163 - 0.00474999994039536 x164 + 0.00526315796078077 x165  = 0
 c272: x164 >= 0
 c273: x165 >= 0
 c274: 210.526318431231 x160 + x164 <= 210.526318431231
 c275: - 189.999997615814 x160 + x165 <= 0
 c276: x89 + x90 + x91 - x92 - x164 + x165  = 144
 c277: x93 >= 0
 c278: x93 <= 80
 c279: x94 >= 0
 c280: x94 <= 90
 c281: x166 >= 0
 c282: x166 <= 1
 c283: - x163 + x166 - 0.00474999994039536 x167 + 0.00526315796078077 x168  = 0
 c284: x167 >= 0
 c285: x168 >= 0
 c286: 210.526318431231 x163 + x167 <= 210.526318431231
 c287: - 189.999997615814 x163 + x168 <= 0
 c288: x93 + x94 + x95 - x96 - x167 + x168  = 150
Bounds
 0 <= x1 <= 80
 0 <= x2 <= 100
 0 <= x5 <= 80
 0 <= x6 <= 100
 0 <= x9 <= 80
 0 <= x10 <= 100
 0 <= x13 <= 80
 0 <= x14 <= 100
 0 <= x17 <= 80
 0 <= x18 <= 100
 0 <= x21 <= 80
 0 <= x22 <= 100
 0 <= x25 <= 80
 0 <= x26 <= 100
 0 <= x29 <= 80
 0 <= x30 <= 100
 0 <= x33 <= 80
 0 <= x34 <= 100
 0 <= x37 <= 80
 0 <= x38 <= 100
 0 <= x41 <= 80
 0 <= x42 <= 100
 0 <= x45 <= 80
 0 <= x46 <= 100
 0 <= x49 <= 80
 0 <= x50 <= 100
 0 <= x53 <= 80
 0 <= x54 <= 100
 0 <= x57 <= 80
 0 <= x58 <= 100
 0 <= x61 <= 80
 0 <= x62 <= 100
 0 <= x65 <= 80
 0 <= x66 <= 100
 0 <= x69 <= 80
 0 <= x70 <= 100
 0 <= x73 <= 80
 0 <= x74 <= 100
 0 <= x77 <= 80
 0 <= x78 <= 100
 0 <= x81 <= 80
 0 <= x82 <= 100
 0 <= x85 <= 80
 0 <= x86 <= 100
 0 <= x89 <= 80
 0 <= x90 <= 100
 0 <= x93 <= 80
 0 <= x94 <= 100
 0 <= x97 <= 1
 0 <= x98 <= 100
 0 <= x99 <= 100
 0 <= x100 <= 1
 0 <= x101 <= 100
 0 <= x102 <= 100
 0 <= x103 <= 1
 0 <= x104 <= 100
 0 <= x105 <= 100
 0 <= x106 <= 1
 0 <= x107 <= 100
 0 <= x108 <= 100
 0 <= x109 <= 1
 0 <= x110 <= 100
 0 <= x111 <= 100
 0 <= x112 <= 1
 0 <= x113 <= 100
 0 <= x114 <= 100
 0 <= x115 <= 1
 0 <= x116 <= 100
 0 <= x117 <= 100
 0 <= x118 <= 1
 0 <= x119 <= 100
 0 <= x120 <= 100
 0 <= x121 <= 1
 0 <= x122 <= 100
 0 <= x123 <= 100
 0 <= x124 <= 1
 0 <= x125 <= 100
 0 <= x126 <= 100
 0 <= x127 <= 1
 0 <= x128 <= 100
 0 <= x129 <= 100
 0 <= x130 <= 1
 0 <= x131 <= 100
 0 <= x132 <= 100
 0 <= x133 <= 1
 0 <= x134 <= 100
 0 <= x135 <= 100
 0 <= x136 <= 1
 0 <= x137 <= 100
 0 <= x138 <= 100
 0 <= x139 <= 1
 0 <= x140 <= 100
 0 <= x141 <= 100
 0 <= x142 <= 1
 0 <= x143 <= 100
 0 <= x144 <= 100
 0 <= x145 <= 1
 0 <= x146 <= 100
 0 <= x147 <= 100
 0 <= x148 <= 1
 0 <= x149 <= 100
 0 <= x150 <= 100
 0 <= x151 <= 1
 0 <= x152 <= 100
 0 <= x153 <= 100
 0 <= x154 <= 1
 0 <= x155 <= 100
 0 <= x156 <= 100
 0 <= x157 <= 1
 0 <= x158 <= 100
 0 <= x159 <= 100
 0 <= x160 <= 1
 0 <= x161 <= 100
 0 <= x162 <= 100
 0 <= x163 <= 1
 0 <= x164 <= 100
 0 <= x165 <= 100
 0 <= x166 <= 1
 0 <= x167 <= 100
 0 <= x168 <= 100
End
